Data path: /scratch/opt/lxu/CFLG/benchmarks/random_A
Instance: r_10_0.2_9.txt
Result path: /scratch/opt/lxu/CFLG/results/random_A
Solver: Gurobi
Time limit: 7200
Formulation: EF
Cover: Large
julia --project=. src/main.jl /scratch/opt/lxu/CFLG/benchmarks/random_A r_10_0.2_9.txt /scratch/opt/lxu/CFLG/results/random_A Gurobi 7200 EF Large
The latest version of Julia in the `release` channel is 1.11.5+0.x64.linux.gnu. You currently have `1.11.4+0.x64.linux.gnu` installed. Run:

  juliaup update

in your terminal shell to install Julia 1.11.5+0.x64.linux.gnu and update the `release` channel to that version.
/scratch/opt/lxu/CFLG/benchmarks/random_A Gurobi 7200.0 /scratch/opt/lxu/CFLG/results/random_A r_10_0.2_9.txt EF Large
/scratch/opt/lxu/CFLG/benchmarks/random_A/r_10_0.2_9.txt

 read graph
data loaded

problem_graph/original graph: node: 10/10 edge: 9/9 dlt: 0.9411961376803664 break_avg_len: 0.4705980688401832 break_max_len: 0.8466035273230632elapsed CPU time: 0.01408 seconds
Set parameter TokenServer to value "solice01.zib.de"
Set parameter Threads to value 1
Set parameter OutputFlag to value 1
Set parameter MIPGap to value 0.0001
Set parameter MIPGapAbs to value 0.999998
Set parameter TimeLimit to value 7199.98592

 model loaded

Gurobi Optimizer version 12.0.1 build v12.0.1rc0 (linux64 - "Debian GNU/Linux 12 (bookworm)")

CPU model: Intel(R) Xeon(R) Gold 5122 CPU @ 3.60GHz, instruction set [SSE2|AVX|AVX2|AVX512]
Thread count: 8 physical cores, 16 logical processors, using up to 1 threads

Non-default parameters:
TimeLimit  7199.98592
MIPGapAbs  0.999998
Threads  1

Optimize a model with 2673 rows, 1206 columns and 6903 nonzeros
Model fingerprint: 0xf880da6b
Variable types: 279 continuous, 927 integer (927 binary)
Coefficient statistics:
  Matrix range     [3e-01, 1e+01]
  Objective range  [1e+00, 1e+00]
  Bounds range     [3e-01, 8e-01]
  RHS range        [1e-02, 1e+01]
Presolve removed 2527 rows and 1018 columns
Presolve time: 0.04s
Presolved: 146 rows, 188 columns, 813 nonzeros
Variable types: 17 continuous, 171 integer (171 binary)
Found heuristic solution: objective 8.0000000
Found heuristic solution: objective 7.0000000
Found heuristic solution: objective 6.0000000
Found heuristic solution: objective 5.0000000

Root relaxation: objective 2.000000e+00, 83 iterations, 0.00 seconds (0.00 work units)

    Nodes    |    Current Node    |     Objective Bounds      |     Work
 Expl Unexpl |  Obj  Depth IntInf | Incumbent    BestBd   Gap | It/Node Time

*    0     0               0       2.0000000    2.00000  0.00%     -    0s

Explored 1 nodes (83 simplex iterations) in 0.04 seconds (0.03 work units)
Thread count was 1 (of 16 available processors)

Solution count 5: 2 5 6 ... 8

Optimal solution found (tolerance 1.00e-04)
Best objective 2.000000000000e+00, best bound 2.000000000000e+00, gap 0.0000%

User-callback calls 1311, time in user-callback 0.01 sec
Stat(MathOptInterface.OPTIMAL, 2.0, 2.0, 0.0, 0.0, 0.01408, 0.04383993148803711, 1, Main.CFLG.EF, "", #undef)
